6331.96
44 0 0 44 0 69 0 44 0 44 69 0 107 0 0 0 44 0 107 0 0 44 0 173 44 0 0 0 0 69 44 0 0 0 0 0 0 69 44 0 0 0 69 107 0 0 0 0 0 107 0 0 0 69 0 0 0 0 0 107 107 107 107 0 0 0 44 173 69 69 44 0 107 0 0 0 0 107 69 107 107 44 0 0 107 107 44 0 0 0 0 0 0 0 69 0 0 0 0 0 0 69 0 44 0 0 0 0 44 0 69 0 0 69 69 69 0 0 0 107 44 163 69 69 69 69 0 0 0 0 107 0 0 107 44 69 0 44 0 0 107 107 0 0 0 69 173 0 0 44 107 0 173 0 0 44 44 44 44 0 69 173 69 69 0 44 44 0 69 0 0 69 69 0 0 69 107 0 0 69 0 0 107 0 0 0 0 173 44 69 0 0 0 44 44 107 0 0 107 0 
